p tw 121 131
1 2
2 34
3 14
4 5
5 6
6 7
7 8
7 10
8 9
9 22
10 11
11 12
12 13
13 15
14 25
15 16
16 17
17 18
18 19
19 20
19 22
20 21
21 22
22 23
23 24
24 26
25 27
27 28
28 29
29 30
30 31
31 32
32 33
32 42
33 35
34 45
35 36
36 37
37 38
38 39
39 40
40 41
41 42
41 24
42 43
43 44
44 46
45 56
46 47
47 48
48 49
49 50
50 51
51 52
52 53
53 54
54 55
55 57
56 67
57 58
57 68
58 59
59 60
60 61
61 62
62 63
63 64
64 65
65 66
65 68
66 24
67 78
67 24
68 69
69 70
70 71
71 72
72 73
72 48
73 74
74 75
75 76
76 77
77 79
78 89
79 80
80 81
81 82
82 83
83 84
84 85
85 86
86 87
87 88
88 90
89 100
90 91
91 92
92 93
92 75
93 94
94 95
95 96
96 97
97 98
98 99
99 101
100 111
101 102
102 103
103 104
104 105
105 106
106 107
107 108
108 109
109 110
110 24
111 3
111 112
112 113
113 114
114 115
115 116
116 117
116 24
117 118
118 119
119 120
120 121
121 4
